NAME : tsp_306_sol.txt
COMMENT : OR-Tools Guided Local Search
TYPE : TOUR
DIMENSION : 50
COST : 6076
STATUS : ROUTING_SUCCESS
GAP : 0.00% (Reference Solution)
TOUR_SECTION
1
35
28
43
30
31
45
38
29
4
49
26
12
20
23
42
10
33
9
22
3
24
8
27
36
6
7
25
5
34
47
21
15
39
44
50
40
16
37
17
32
14
48
19
2
41
11
18
13
46
-1
